15
-1 281 398 350 248 46 177 277 182 444 345 224 203 393 243 
281 -1 446 548 396 316 194 467 463 559 586 257 428 668 517 
398 446 -1 260 646 374 277 670 471 842 366 202 286 534 432 
350 548 260 -1 568 306 355 560 309 751 111 308 147 286 229 
248 396 646 568 -1 278 400 82 284 196 527 463 424 493 382 
46 316 374 306 278 -1 186 295 154 472 299 218 159 353 202 
177 194 277 355 400 186 -1 446 337 593 402 74 246 509 361 
277 467 670 560 82 295 446 -1 257 192 503 501 423 445 353 
182 463 471 309 284 154 337 257 -1 449 246 357 189 224 98 
444 559 842 751 196 472 593 192 449 -1 696 658 611 627 545 
345 586 366 111 527 299 402 503 246 696 -1 373 158 174 151 
224 257 202 308 463 218 74 501 357 658 373 -1 226 501 361 
203 428 286 147 424 159 246 423 189 611 158 226 -1 276 148 
393 668 534 286 493 353 509 445 224 627 174 501 276 -1 151 
243 517 432 229 382 202 361 353 98 545 151 361 148 151 -1 
